 200 43 
 53 37 98 51 84 50 70 75 35 53 95 17 
 61 100 78 23 21 82 82 77 85 62 5 79 
 46 76 21 46 9 71 96 42 61 90 3 23 
 50 7 67 62 98 49 38 
 21 
 4 5 6 8 9 11 12 18 19 21 23 25 
 28 29 33 34 38 40 41 42 43 
 18 
 3 5 6 7 10 11 15 17 19 24 27 28 
 30 31 33 36 37 40 
 10 
 1 8 11 13 15 28 29 30 40 42 
 22 
 1 3 7 8 10 11 14 20 21 22 23 25 
 26 27 29 32 33 36 37 39 40 42 
 17 
 2 3 6 7 9 17 19 20 22 23 28 30 
 31 35 36 38 42 
 19 
 3 5 6 7 9 10 16 17 18 20 26 27 
 28 30 32 35 38 39 41 
 20 
 1 2 4 7 9 13 15 17 19 20 22 24 
 26 30 33 38 39 40 41 43 
 9 
 3 7 13 18 21 32 33 34 36 
 16 
 5 8 9 10 13 15 21 22 24 26 27 28 
 29 32 34 41 
 37 
 1 2 3 5 6 9 12 13 14 16 17 18 
 19 20 21 22 23 24 25 26 27 28 29 30 
 31 32 33 34 35 36 37 38 39 40 41 42 
 43 
 8 
 1 2 6 13 15 20 21 29 
 28 
 2 3 5 6 7 10 13 14 15 16 18 19 
 20 23 24 26 27 29 30 31 33 34 36 37 
 40 41 42 43 
 38 
 1 2 3 4 6 7 8 9 10 11 12 13 
 14 15 16 17 18 20 21 23 24 25 26 27 
 28 29 30 31 32 33 34 35 36 38 39 41 
 42 43 
 22 
 1 3 6 7 9 10 15 17 19 21 22 24 
 26 28 30 31 33 36 37 39 42 43 
 24 
 1 2 4 6 8 9 11 12 15 16 17 18 
 19 21 22 24 25 26 27 28 29 36 40 41 
 9 
 1 2 11 14 21 28 30 36 38 
 43 
 1 2 3 4 5 6 7 8 9 10 11 12 
 13 14 15 16 17 18 19 20 21 22 23 24 
 25 26 27 28 29 30 31 32 33 34 35 36 
 37 38 39 40 41 42 43 
 23 
 1 3 4 5 6 8 9 13 16 19 21 24 
 25 26 27 28 29 30 34 37 38 39 41 
 11 
 1 3 8 13 17 20 22 27 28 36 41 
 35 
 1 2 3 4 5 6 7 10 11 12 13 15 
 16 17 18 19 21 22 23 24 25 27 28 29 
 30 32 33 34 36 37 38 40 41 42 43 
 43 
 1 2 3 4 5 6 7 8 9 10 11 12 
 13 14 15 16 17 18 19 20 21 22 23 24 
 25 26 27 28 29 30 31 32 33 34 35 36 
 37 38 39 40 41 42 43 
 5 
 26 28 29 30 33 
 37 
 1 2 3 4 5 6 7 9 10 11 12 14 
 15 16 17 18 19 20 23 24 25 26 27 29 
 30 31 33 34 35 36 37 38 39 40 41 42 
 43 
 31 
 1 2 3 4 5 7 8 11 13 14 15 16 
 17 18 19 21 22 23 24 26 28 29 32 33 
 35 37 38 39 40 41 42 
 26 
 2 3 4 5 7 9 10 13 14 15 16 18 
 20 22 23 24 26 28 29 30 35 36 38 39 
 41 43 
 35 
 1 2 3 4 5 6 7 8 9 10 11 12 
 14 15 16 17 19 21 22 23 25 26 27 28 
 30 31 32 33 36 37 39 40 41 42 43 
 17 
 3 9 11 12 14 15 16 19 21 23 25 28 
 30 31 33 35 38 
 4 
 11 18 20 24 
 15 
 1 2 3 7 8 10 16 17 18 20 21 28 
 33 36 40 
 29 
 1 3 4 5 6 10 12 13 17 18 19 20 
 21 23 24 25 26 27 29 30 32 34 35 38 
 39 40 41 42 43 
 40 
 1 2 3 5 6 7 8 9 10 11 12 13 
 14 15 17 18 19 20 21 22 23 24 25 26 
 27 28 29 30 31 32 33 34 35 36 37 39 
 40 41 42 43 
 26 
 1 2 6 7 8 11 13 17 18 19 20 21 
 23 24 25 28 30 31 32 33 34 35 36 37 
 39 42 
 22 
 1 2 4 5 7 12 13 16 18 24 26 27 
 28 29 32 34 37 38 39 40 41 42 
 26 
 1 4 5 6 7 8 10 11 14 15 16 17 
 18 19 20 21 22 26 28 29 30 33 35 39 
 40 41 
 24 
 2 3 5 6 7 8 10 12 13 14 15 19 
 21 24 25 27 29 30 34 35 37 41 42 43 
 2 
 22 30 
 21 
 1 2 4 5 8 9 10 13 14 15 17 19 
 21 22 27 29 34 38 39 42 43 
 6 
 3 4 14 26 32 42 
 3 
 9 28 34 
 13 
 8 9 14 16 19 20 25 26 27 32 33 39 
 41 
 29 
 3 4 5 7 8 9 10 13 14 15 16 17 
 18 21 22 23 26 27 30 31 32 33 35 36 
 37 38 39 40 42 
 12 
 5 8 13 14 21 26 29 34 36 39 40 43 
 14 
 3 4 6 8 14 15 17 18 22 27 28 34 
 36 41 
 20 
 1 2 3 4 5 9 11 12 14 15 16 18 
 19 24 25 28 33 37 41 43 
 40 
 1 2 3 5 6 7 8 9 10 11 12 13 
 15 16 17 18 19 20 21 22 23 24 25 26 
 27 28 29 30 31 32 33 34 36 37 38 39 
 40 41 42 43 
 9 
 6 9 13 15 18 19 27 30 41 
 8 
 6 16 19 27 30 39 40 43 
 20 
 8 9 11 12 13 19 22 23 25 26 28 31 
 32 33 34 37 38 39 41 43 
 32 
 2 4 5 6 7 8 9 11 13 14 15 17 
 19 21 22 23 24 25 27 28 30 31 33 35 
 36 37 38 39 40 41 42 43 
 29 
 1 2 3 4 6 7 11 12 13 16 20 21 
 22 23 24 25 27 28 30 32 33 36 37 38 
 39 40 41 42 43 
 42 
 1 2 3 4 5 6 7 8 9 10 11 12 
 13 14 16 17 18 19 20 21 22 23 24 25 
 26 27 28 29 30 31 32 33 34 35 36 37 
 38 39 40 41 42 43 
 15 
 1 2 8 15 16 17 23 24 26 27 35 36 
 38 39 43 
 37 
 2 3 4 5 6 7 8 9 10 11 14 15 
 16 17 18 19 20 21 22 23 24 25 27 28 
 30 31 32 33 34 35 37 38 39 40 41 42 
 43 
 12 
 1 9 14 16 21 22 25 26 32 34 35 43 
 26 
 2 3 4 5 6 8 14 17 18 22 23 24 
 25 26 27 28 29 30 31 34 35 37 38 40 
 41 43 
 37 
 1 2 3 4 5 6 7 8 9 10 11 12 
 13 15 17 18 19 20 21 23 24 25 26 27 
 28 29 30 32 33 35 36 38 39 40 41 42 
 43 
 42 
 1 2 3 4 5 6 7 8 9 10 11 12 
 13 14 15 16 17 18 20 21 22 23 24 25 
 26 27 28 29 30 31 32 33 34 35 36 37 
 38 39 40 41 42 43 
 5 
 5 11 17 23 37 
 36 
 2 3 4 5 6 7 8 9 10 12 13 14 
 16 17 19 20 21 22 23 24 26 27 29 31 
 32 33 34 35 36 37 38 39 40 41 42 43 
 41 
 1 2 3 4 5 6 7 9 10 11 12 13 
 14 15 16 17 18 19 20 21 22 23 24 25 
 26 27 28 29 30 31 32 33 34 35 36 37 
 38 39 40 41 42 
 18 
 2 6 7 9 11 12 13 14 17 19 20 24 
 25 28 29 32 38 42 
 24 
 2 5 6 7 10 11 12 14 15 17 19 20 
 21 24 27 29 30 33 36 37 38 40 42 43 
 22 
 1 4 6 13 14 15 17 18 19 21 22 24 
 25 26 27 28 33 34 37 40 41 43 
 25 
 1 3 6 7 9 11 13 14 15 16 17 18 
 19 20 21 22 23 27 28 29 36 37 40 42 
 43 
 28 
 1 2 4 5 6 7 8 9 10 11 13 16 
 17 18 20 22 23 24 27 29 31 32 33 34 
 35 36 37 43 
 27 
 1 4 5 7 8 11 12 13 14 16 17 19 
 20 24 25 26 29 30 31 32 33 34 37 38 
 39 40 42 
 33 
 1 3 4 5 6 7 8 10 11 12 13 14 
 17 18 19 20 21 22 24 25 26 29 30 31 
 33 34 35 36 37 40 41 42 43 
 13 
 4 6 10 17 19 20 24 32 35 38 41 42 
 43 
 25 
 3 4 5 6 8 11 12 13 16 20 22 25 
 26 27 28 30 31 32 33 36 37 40 41 42 
 43 
 18 
 9 10 11 13 14 17 23 25 28 32 34 35 
 37 38 40 41 42 43 
 7 
 1 3 8 9 11 20 26 
 13 
 2 7 19 21 22 23 24 25 26 33 34 35 
 38 
 27 
 2 3 4 5 8 12 13 14 15 18 19 21 
 22 25 26 27 28 29 30 31 32 34 35 36 
 39 41 43 
 5 
 6 19 31 32 40 
 32 
 1 2 3 5 6 7 9 11 12 14 15 17 
 18 19 20 21 23 25 26 27 28 29 32 33 
 34 35 36 38 40 41 42 43 
 8 
 5 10 12 15 22 25 42 43 
 23 
 3 4 6 9 10 12 13 15 16 18 21 24 
 26 27 28 30 31 32 35 38 39 41 43 
 36 
 1 3 4 6 7 8 9 10 11 12 14 15 
 16 17 18 20 21 22 23 24 26 27 28 29 
 30 31 32 33 34 36 38 39 40 41 42 43 
 30 
 2 3 4 5 6 7 8 9 10 12 14 15 
 19 21 22 23 24 25 26 28 29 30 34 35 
 36 37 39 40 42 43 
 9 
 8 13 20 23 24 26 32 38 39 
 35 
 1 2 3 4 5 7 8 9 10 11 12 13 
 14 15 16 17 18 22 23 24 25 26 27 28 
 29 30 31 33 34 35 37 38 40 41 43 
 3 
 15 28 39 
 6 
 7 16 31 33 40 43 
 38 
 1 2 4 5 6 7 9 11 12 13 14 15 
 16 17 19 20 21 22 23 24 25 26 27 28 
 29 30 31 32 33 34 35 36 37 38 39 40 
 41 42 
 34 
 1 2 3 4 5 6 8 12 13 14 15 17 
 18 19 21 22 23 24 26 27 28 29 31 32 
 33 34 35 36 37 38 39 40 41 42 
 41 
 1 2 3 4 5 6 7 8 9 10 11 13 
 14 15 16 17 18 19 20 21 22 23 24 25 
 26 27 28 29 30 31 32 34 35 36 37 38 
 39 40 41 42 43 
 18 
 1 4 5 6 11 12 13 16 17 20 23 29 
 35 37 40 41 42 43 
 17 
 1 2 5 9 13 15 17 18 20 23 26 27 
 29 30 34 35 36 
 20 
 1 4 5 7 8 9 10 12 14 18 21 22 
 28 29 30 34 35 41 42 43 
 37 
 1 2 3 4 5 7 8 9 10 11 12 13 
 14 15 16 17 18 19 20 21 22 23 25 27 
 29 30 32 33 34 35 37 38 39 40 41 42 
 43 
 10 
 4 7 8 14 18 23 28 35 39 41 
 3 
 13 18 29 
 27 
 1 2 3 4 6 7 9 12 13 15 18 19 
 21 22 25 27 28 29 30 31 33 37 38 39 
 40 41 43 
 32 
 1 2 3 5 6 7 8 10 11 12 13 14 
 18 19 21 22 23 25 26 27 29 30 31 32 
 33 34 35 36 38 41 42 43 
 2 
 32 41 
 14 
 2 3 5 6 13 22 23 26 27 33 34 39 
 42 43 
 2 
 8 14 
 21 
 3 5 6 7 8 9 10 13 17 18 21 22 
 25 27 28 29 30 31 36 38 42 
 17 
 4 6 8 11 13 14 18 19 20 22 24 25 
 26 28 33 40 43 
 13 
 3 5 9 14 19 23 26 28 29 34 40 41 
 42 
 40 
 1 2 3 4 5 6 7 8 9 10 11 13 
 14 15 16 17 18 19 20 21 22 23 25 26 
 27 28 29 30 31 32 33 34 35 36 37 39 
 40 41 42 43 
 40 
 1 2 3 4 5 7 8 9 10 11 12 13 
 14 15 16 17 18 19 20 21 22 23 24 25 
 26 27 29 30 32 33 34 35 36 37 38 39 
 40 41 42 43 
 20 
 3 4 5 7 8 11 16 18 19 20 24 25 
 27 28 29 32 36 39 42 43 
 22 
 3 4 7 8 13 14 16 17 18 19 21 22 
 25 27 28 29 31 35 36 38 42 43 
 19 
 1 3 11 17 18 19 20 21 22 24 25 26 
 29 32 36 37 38 41 43 
 21 
 2 3 4 6 8 9 10 12 14 16 17 19 
 23 24 27 29 33 34 40 41 42 
 16 
 3 6 8 12 14 16 17 20 22 23 25 26 
 28 35 37 38 
 15 
 1 4 9 12 17 20 22 26 29 30 32 33 
 36 39 40 
 27 
 1 2 3 4 6 7 8 10 11 13 14 15 
 17 18 21 22 24 26 28 32 33 34 36 38 
 39 41 43 
 15 
 2 5 6 7 16 17 18 19 26 29 33 35 
 37 41 42 
 35 
 1 2 3 4 5 6 7 9 10 12 13 14 
 15 16 20 21 22 23 24 25 26 27 28 30 
 32 33 34 35 36 37 38 39 41 42 43 
 33 
 1 3 4 5 6 7 8 9 10 11 13 14 
 15 16 17 18 19 20 23 24 25 27 28 29 
 30 33 34 36 37 39 40 41 42 
 8 
 2 3 7 8 14 20 30 42 
 3 
 25 27 36 
 12 
 3 9 10 12 19 23 32 35 36 39 40 42 
 2 
 8 27 
 41 
 1 2 3 5 6 7 8 9 10 11 12 13 
 14 15 16 17 18 19 20 22 23 24 25 26 
 27 28 29 30 31 32 33 34 35 36 37 38 
 39 40 41 42 43 
 30 
 1 4 5 6 7 9 10 11 12 13 15 16 
 17 19 20 22 23 25 27 28 29 31 32 33 
 34 35 37 38 40 43 
 31 
 2 4 6 8 9 11 12 13 14 15 16 17 
 18 19 20 22 25 26 28 29 31 32 34 35 
 36 37 38 39 40 41 42 
 27 
 3 4 5 7 8 9 10 13 15 16 17 18 
 20 23 24 25 29 30 31 32 34 35 37 39 
 40 41 42 
 25 
 1 2 4 6 9 11 12 13 14 16 18 22 
 24 25 27 28 29 30 33 36 37 38 39 40 
 42 
 34 
 1 2 4 5 6 7 8 9 10 11 12 13 
 15 17 18 19 20 21 22 23 24 25 26 27 
 30 31 32 33 34 36 37 38 41 42 
 2 
 14 15 
 4 
 1 6 37 38 
 28 
 1 2 5 6 7 8 9 12 14 15 16 20 
 23 25 26 27 28 29 30 32 34 36 37 38 
 39 40 42 43 
 22 
 1 2 3 4 6 7 8 14 15 17 18 19 
 20 21 23 26 30 31 32 33 35 41 
 38 
 1 2 3 4 5 6 7 8 9 10 11 12 
 13 14 15 17 18 19 20 22 23 24 26 27 
 29 30 32 33 34 35 36 37 38 39 40 41 
 42 43 
 5 
 33 34 36 40 42 
 9 
 2 6 14 16 20 26 30 36 40 
 34 
 1 2 5 7 8 9 10 11 12 13 14 15 
 16 17 19 21 23 24 25 27 30 31 32 33 
 34 35 36 37 38 39 40 41 42 43 
 21 
 2 5 6 9 11 13 14 16 17 20 22 24 
 26 27 29 31 32 35 36 38 43 
 2 
 21 36 
 37 
 1 2 3 5 6 7 9 10 11 12 13 14 
 15 17 18 19 20 21 22 23 24 25 26 27 
 28 29 31 32 33 34 36 37 38 39 40 41 
 42 
 5 
 4 13 19 31 42 
 41 
 1 2 3 4 5 6 7 8 9 10 11 12 
 13 14 15 16 17 18 19 20 21 22 23 24 
 25 26 27 29 30 31 32 33 34 35 36 37 
 38 40 41 42 43 
 32 
 1 2 4 7 8 9 11 13 15 16 17 18 
 19 20 21 22 23 24 25 26 29 30 31 32 
 33 35 36 37 38 40 41 43 
 18 
 3 4 7 8 10 11 12 15 18 24 25 27 
 28 29 31 34 36 43 
 19 
 1 3 4 5 8 10 12 16 21 22 24 26 
 28 30 36 37 38 39 43 
 28 
 2 3 4 5 6 9 10 11 12 13 14 15 
 16 17 18 20 21 22 24 26 29 32 35 36 
 38 40 41 43 
 40 
 1 2 3 4 5 6 7 8 9 10 11 12 
 13 14 15 16 17 18 19 20 21 22 23 24 
 25 26 27 28 29 30 31 32 33 34 37 38 
 39 40 42 43 
 30 
 2 3 5 6 7 8 11 12 14 17 18 20 
 21 22 23 24 25 26 27 28 29 30 31 32 
 38 39 40 41 42 43 
 7 
 14 15 21 22 25 30 41 
 21 
 2 3 5 7 8 11 12 14 18 19 20 22 
 24 25 26 27 30 34 37 39 43 
 24 
 1 2 3 4 5 6 7 8 10 12 14 17 
 18 19 20 23 24 25 27 29 33 40 41 42 
 20 
 1 2 3 4 5 7 11 13 17 18 20 21 
 22 28 30 32 34 36 37 39 
 17 
 2 4 5 8 10 11 12 14 17 21 23 25 
 31 32 35 36 41 
 12 
 7 10 14 15 16 17 20 27 34 39 41 43 
 25 
 2 3 5 8 9 12 13 14 15 16 17 20 
 22 23 25 27 28 30 33 34 35 36 37 41 
 42 
 15 
 2 6 7 10 20 21 22 24 25 26 28 29 
 36 38 42 
 6 
 6 8 12 28 31 34 
 25 
 2 5 6 8 9 10 11 12 13 14 16 18 
 20 23 24 25 26 29 30 32 33 34 36 39 
 43 
 5 
 2 27 31 35 38 
 28 
 1 2 3 5 6 7 9 11 12 14 15 19 
 20 22 23 26 27 29 30 31 32 34 35 36 
 38 39 40 42 
 5 
 7 9 34 38 42 
 5 
 6 10 17 19 41 
 39 
 1 2 3 4 5 6 7 8 9 10 11 12 
 13 14 15 17 18 19 20 21 22 24 25 26 
 27 28 29 30 31 32 33 35 36 37 38 39 
 40 41 42 
 12 
 1 9 11 19 22 24 25 28 29 40 41 43 
 31 
 1 2 4 5 6 9 10 11 12 13 15 16 
 18 19 22 23 24 25 26 27 29 30 31 34 
 36 37 38 40 41 42 43 
 21 
 2 3 6 10 11 13 14 16 18 20 21 22 
 24 27 28 30 31 32 33 37 40 
 37 
 1 2 3 4 5 6 7 9 10 11 12 13 
 14 16 19 20 21 22 23 24 25 27 28 29 
 30 31 32 33 34 36 37 38 39 40 41 42 
 43 
 23 
 3 8 9 11 12 13 14 15 17 19 25 27 
 28 29 30 31 33 34 35 36 40 41 43 
 20 
 1 3 4 6 7 8 15 16 17 18 20 21 
 22 28 30 32 35 41 42 43 
 5 
 2 25 30 41 43 
 18 
 1 2 3 4 8 10 13 14 16 18 23 24 
 26 33 34 37 42 43 
 35 
 1 2 3 4 5 6 7 8 10 11 12 13 
 15 16 18 19 20 21 22 23 24 25 26 27 
 28 29 31 33 34 35 36 37 40 41 43 
 3 
 16 20 25 
 34 
 1 3 4 5 8 9 10 11 12 13 14 15 
 16 17 18 21 22 23 24 25 26 27 28 30 
 31 34 35 37 38 39 40 41 42 43 
 37 
 1 3 4 5 6 7 8 9 10 11 13 14 
 15 16 17 18 20 21 22 24 25 26 27 28 
 30 31 33 34 35 36 37 38 39 40 41 42 
 43 
 33 
 1 2 4 6 9 10 11 12 13 17 18 19 
 20 21 22 23 24 25 26 28 29 30 31 33 
 35 36 37 38 39 40 41 42 43 
 34 
 1 3 4 5 6 8 9 10 11 12 14 15 
 17 19 21 22 23 24 25 26 27 28 29 31 
 33 34 35 37 38 39 40 41 42 43 
 25 
 3 7 8 9 10 11 12 13 15 16 17 18 
 21 23 24 25 27 33 34 35 36 37 38 40 
 42 
 3 
 11 18 39 
 30 
 1 2 3 4 5 7 9 10 11 12 14 15 
 16 17 18 19 21 24 25 27 28 30 31 32 
 33 35 36 40 41 43 
 10 
 1 6 16 17 19 26 27 37 40 41 
 9 
 6 11 15 18 21 22 25 27 40 
 4 
 2 35 41 42 
 29 
 1 2 3 5 6 7 8 10 11 12 13 14 
 15 16 17 18 20 23 24 25 28 29 30 33 
 35 36 40 42 43 
 17 
 1 2 3 4 7 10 11 12 15 21 22 26 
 33 35 38 39 42 
 19 
 3 5 9 12 13 15 16 17 20 26 29 31 
 32 36 37 38 39 41 42 
 15 
 2 4 6 8 9 11 12 20 22 26 32 34 
 38 39 40 
 8 
 9 18 20 22 26 28 30 43 
 30 
 1 3 5 6 7 8 9 12 14 15 16 17 
 21 23 24 25 26 27 29 30 31 32 34 35 
 38 39 40 41 42 43 
 20 
 3 4 6 8 9 12 14 16 20 21 26 28 
 29 30 33 34 39 40 42 43 
 31 
 2 4 5 6 7 8 10 11 14 15 16 17 
 18 19 20 21 23 25 26 28 29 30 31 32 
 36 38 39 40 41 42 43 
 20 
 1 5 7 9 10 11 12 15 25 26 27 28 
 30 31 32 34 36 37 39 42 
 4 
 1 7 29 42 
 33 
 1 3 4 5 6 8 10 11 13 14 15 16 
 17 19 20 21 23 24 25 26 27 28 29 32 
 33 34 35 36 37 38 41 42 43 
 16 
 5 7 11 12 15 18 22 24 25 26 28 35 
 36 39 42 43 
 6 
 5 11 14 16 18 21 
 32 
 1 2 3 4 6 8 9 10 11 13 14 16 
 17 20 21 22 23 24 25 26 27 30 32 33 
 35 36 37 38 39 40 41 42 
 24 
 2 3 4 5 6 7 8 11 13 16 18 20 
 23 24 25 28 29 31 32 35 36 38 39 43 
 40 
 1 2 3 4 5 6 7 8 9 10 11 12 
 13 15 16 17 18 19 20 21 22 23 24 25 
 26 27 28 29 30 31 33 34 35 36 37 38 
 39 40 42 43 
 35 
 1 2 3 4 6 7 8 9 10 11 12 13 
 14 15 17 18 19 22 23 24 25 26 27 28 
 29 30 31 32 34 35 36 37 40 41 42 
 5 
 5 6 23 28 37 
 34 
 2 3 5 6 8 9 10 11 12 14 15 16 
 17 19 20 21 24 25 26 27 28 29 30 31 
 32 33 34 35 36 37 39 40 41 42 
 25 
 2 3 8 10 13 15 16 17 18 19 20 22 
 23 24 28 29 30 31 32 33 34 36 37 40 
 43 
 42 
 1 2 3 4 5 6 7 8 9 10 11 12 
 13 14 15 16 18 19 20 21 22 23 24 25 
 26 27 28 29 30 31 32 33 34 35 36 37 
 38 39 40 41 42 43 
 5 
 4 5 8 11 22 
 39 
 1 2 3 4 5 7 8 9 10 11 12 13 
 14 15 16 17 18 19 20 21 22 23 24 25 
 26 28 29 31 32 33 34 35 36 37 38 40 
 41 42 43 
 19 
 1 4 5 10 11 13 14 15 19 21 26 27 
 30 31 32 33 37 38 43 
 